; benchmark generated from python API
(set-info :status unknown)
(declare-fun args_0_8 () (_ BitVec 8))
(declare-fun strlen_77_64 () (_ BitVec 64))
(declare-fun args_1_8 () (_ BitVec 8))
(declare-fun strlen_79_64 () (_ BitVec 64))
(declare-fun args_2_8 () (_ BitVec 8))
(declare-fun strlen_81_64 () (_ BitVec 64))
(declare-fun strlen_83_64 () (_ BitVec 64))
(declare-fun args_3_8 () (_ BitVec 8))
(declare-fun strlen_109_64 () (_ BitVec 64))
(declare-fun strlen_112_64 () (_ BitVec 64))
(declare-fun strlen_117_64 () (_ BitVec 64))
(declare-fun strlen_164_64 () (_ BitVec 64))
(declare-fun strlen_182_64 () (_ BitVec 64))
(declare-fun strlen_203_64 () (_ BitVec 64))
(declare-fun strlen_223_64 () (_ BitVec 64))
(declare-fun args_4_8 () (_ BitVec 8))
(declare-fun strlen_249_64 () (_ BitVec 64))
(declare-fun args_5_16 () (_ BitVec 16))
(declare-fun strlen_275_64 () (_ BitVec 64))
(declare-fun args_6_16 () (_ BitVec 16))
(declare-fun strlen_308_64 () (_ BitVec 64))
(declare-fun args_7_16 () (_ BitVec 16))
(declare-fun strlen_339_64 () (_ BitVec 64))
(declare-fun args_8_16 () (_ BitVec 16))
(declare-fun strlen_373_64 () (_ BitVec 64))
(declare-fun args_9_16 () (_ BitVec 16))
(declare-fun strlen_405_64 () (_ BitVec 64))
(declare-fun args_10_32 () (_ BitVec 32))
(declare-fun strlen_441_64 () (_ BitVec 64))
(declare-fun args_11_32 () (_ BitVec 32))
(declare-fun strlen_473_64 () (_ BitVec 64))
(declare-fun args_12_32 () (_ BitVec 32))
(declare-fun strlen_510_64 () (_ BitVec 64))
(declare-fun args_13_32 () (_ BitVec 32))
(declare-fun strlen_548_64 () (_ BitVec 64))
(declare-fun args_14_32 () (_ BitVec 32))
(declare-fun strlen_586_64 () (_ BitVec 64))
(declare-fun args_15_64 () (_ BitVec 64))
(declare-fun strlen_625_64 () (_ BitVec 64))
(declare-fun args_16_64 () (_ BitVec 64))
(declare-fun strlen_664_64 () (_ BitVec 64))
(declare-fun args_17_64 () (_ BitVec 64))
(declare-fun strlen_701_64 () (_ BitVec 64))
(declare-fun args_18_64 () (_ BitVec 64))
(declare-fun strlen_737_64 () (_ BitVec 64))
(declare-fun args_19_64 () (_ BitVec 64))
(assert
 (let (($x69 (= (_ bv0 8) args_0_8)))
 (not $x69)))
(assert
 (= (_ bv1 64) strlen_77_64))
(assert
 (let (($x359 (= (_ bv0 8) args_1_8)))
 (not $x359)))
(assert
 (= (_ bv1 64) strlen_79_64))
(assert
 (let (($x211 (= (_ bv0 8) args_2_8)))
 (not $x211)))
(assert
 (= (_ bv1 64) strlen_81_64))
(assert
 (= (_ bv0 64) strlen_83_64))
(assert
 (= (_ bv0 8) args_3_8))
(assert
 (= (_ bv1 64) strlen_109_64))
(assert
 (= (_ bv1 64) strlen_112_64))
(assert
 (= (_ bv1 64) strlen_117_64))
(assert
 (= (_ bv1 64) strlen_164_64))
(assert
 (= (_ bv1 64) strlen_182_64))
(assert
 (= (_ bv0 64) strlen_203_64))
(assert
 (let ((?x7923 (bvadd (_ bv576460752303357832 64) strlen_223_64)))
 (let (($x1140 (= (_ bv0 8) args_4_8)))
 (let ((?x1058 (ite $x1140 (_ bv576460752303357832 64) (_ bv576460752303357833 64))))
 (= ?x1058 ?x7923)))))
(assert
 (let ((?x13254 (bvadd (_ bv1 64) strlen_223_64)))
 (let ((?x13215 ((_ extract 63 2) ?x13254)))
 (= (_ bv0 62) ?x13215))))
(assert
 (let ((?x13060 ((_ extract 1 0) strlen_223_64)))
 (let ((?x13174 (bvadd (_ bv1 2) ?x13060)))
 (bvule ?x13174 (_ bv2 2)))))
(assert
 (bvule strlen_223_64 (_ bv18446744073709551614 64)))
(assert
 (let ((?x13687 (bvadd (_ bv576460752303357834 64) strlen_249_64)))
 (let ((?x1473 ((_ extract 7 0) args_5_16)))
 (let (($x1480 (= (_ bv0 8) ?x1473)))
 (let ((?x2699 (ite $x1480 (_ bv576460752303357835 64) (_ bv576460752303357836 64))))
 (let ((?x1474 ((_ extract 15 8) args_5_16)))
 (let (($x1010 (= (_ bv0 8) ?x1474)))
 (let ((?x912 (ite $x1010 (_ bv576460752303357834 64) ?x2699)))
 (= ?x912 ?x13687)))))))))
(assert
 (let ((?x15707 (bvadd (_ bv1 64) strlen_249_64)))
 (let ((?x15647 ((_ extract 63 2) ?x15707)))
 (= (_ bv0 62) ?x15647))))
(assert
 (bvule strlen_249_64 (_ bv18446744073709551614 64)))
(assert
 (let ((?x16586 (bvadd (_ bv576460752303357837 64) strlen_275_64)))
 (let ((?x1906 ((_ extract 7 0) args_6_16)))
 (let (($x1220 (= (_ bv0 8) ?x1906)))
 (let ((?x2396 (ite $x1220 (_ bv576460752303357838 64) (_ bv576460752303357839 64))))
 (let ((?x1646 ((_ extract 15 8) args_6_16)))
 (let (($x1544 (= (_ bv0 8) ?x1646)))
 (let ((?x2401 (ite $x1544 (_ bv576460752303357837 64) ?x2396)))
 (= ?x2401 ?x16586)))))))))
(assert
 (let ((?x17613 (bvadd (_ bv1 64) strlen_275_64)))
 (let ((?x17708 ((_ extract 63 2) ?x17613)))
 (= (_ bv0 62) ?x17708))))
(assert
 (bvule strlen_275_64 (_ bv18446744073709551614 64)))
(assert
 (let ((?x22215 (bvadd (_ bv576460752303357840 64) strlen_308_64)))
 (let ((?x944 ((_ extract 7 0) args_7_16)))
 (let (($x2153 (= (_ bv0 8) ?x944)))
 (let ((?x4174 (ite $x2153 (_ bv576460752303357841 64) (_ bv576460752303357842 64))))
 (let ((?x2056 ((_ extract 15 8) args_7_16)))
 (let (($x2419 (= (_ bv0 8) ?x2056)))
 (let ((?x3587 (ite $x2419 (_ bv576460752303357840 64) ?x4174)))
 (= ?x3587 ?x22215)))))))))
(assert
 (let ((?x21297 (bvadd (_ bv1 64) strlen_308_64)))
 (let ((?x17677 ((_ extract 63 2) ?x21297)))
 (= (_ bv0 62) ?x17677))))
(assert
 (bvule strlen_308_64 (_ bv18446744073709551614 64)))
(assert
 (let ((?x24827 (bvadd (_ bv576460752303357843 64) strlen_339_64)))
 (let ((?x2491 ((_ extract 7 0) args_8_16)))
 (let (($x3207 (= (_ bv0 8) ?x2491)))
 (let ((?x3024 (ite $x3207 (_ bv576460752303357844 64) (_ bv576460752303357845 64))))
 (let ((?x2766 ((_ extract 15 8) args_8_16)))
 (let (($x3226 (= (_ bv0 8) ?x2766)))
 (let ((?x3020 (ite $x3226 (_ bv576460752303357843 64) ?x3024)))
 (= ?x3020 ?x24827)))))))))
(assert
 (let ((?x24619 (bvadd (_ bv1 64) strlen_339_64)))
 (let ((?x24952 ((_ extract 63 2) ?x24619)))
 (= (_ bv0 62) ?x24952))))
(assert
 (bvule strlen_339_64 (_ bv18446744073709551614 64)))
(assert
 (let ((?x26175 (bvadd (_ bv576460752303357846 64) strlen_373_64)))
 (let ((?x3735 ((_ extract 7 0) args_9_16)))
 (let (($x3581 (= (_ bv0 8) ?x3735)))
 (let ((?x4338 (ite $x3581 (_ bv576460752303357847 64) (_ bv576460752303357848 64))))
 (let ((?x3102 ((_ extract 15 8) args_9_16)))
 (let (($x3771 (= (_ bv0 8) ?x3102)))
 (let ((?x4333 (ite $x3771 (_ bv576460752303357846 64) ?x4338)))
 (= ?x4333 ?x26175)))))))))
(assert
 (let ((?x28780 (bvadd (_ bv1 64) strlen_373_64)))
 (let ((?x28858 ((_ extract 63 2) ?x28780)))
 (= (_ bv0 62) ?x28858))))
(assert
 (bvule strlen_373_64 (_ bv18446744073709551614 64)))
(assert
 (let ((?x3426 (bvadd (_ bv576460752303357849 64) strlen_405_64)))
 (let ((?x3490 ((_ extract 7 0) args_10_32)))
 (let (($x3139 (= (_ bv0 8) ?x3490)))
 (let ((?x5565 (ite $x3139 (_ bv576460752303357852 64) (_ bv576460752303357853 64))))
 (let ((?x3761 ((_ extract 15 8) args_10_32)))
 (let (($x3847 (= (_ bv0 8) ?x3761)))
 (let ((?x5410 (ite $x3847 (_ bv576460752303357851 64) ?x5565)))
 (let ((?x3388 ((_ extract 23 16) args_10_32)))
 (let (($x3778 (= (_ bv0 8) ?x3388)))
 (let ((?x5402 (ite $x3778 (_ bv576460752303357850 64) ?x5410)))
 (let ((?x3227 ((_ extract 31 24) args_10_32)))
 (let (($x3588 (= (_ bv0 8) ?x3227)))
 (let ((?x5394 (ite $x3588 (_ bv576460752303357849 64) ?x5402)))
 (= ?x5394 ?x3426)))))))))))))))
(assert
 (let ((?x27893 (bvadd (_ bv1 64) strlen_405_64)))
 (let ((?x16682 ((_ extract 63 3) ?x27893)))
 (= (_ bv0 61) ?x16682))))
(assert
 (let ((?x16800 ((_ extract 2 0) strlen_405_64)))
 (let ((?x27955 (bvadd (_ bv1 3) ?x16800)))
 (bvule ?x27955 (_ bv5 3)))))
(assert
 (bvule strlen_405_64 (_ bv18446744073709551614 64)))
(assert
 (let ((?x35320 (bvadd (_ bv576460752303357854 64) strlen_441_64)))
 (let ((?x5702 ((_ extract 7 0) args_11_32)))
 (let (($x5773 (= (_ bv0 8) ?x5702)))
 (let ((?x6262 (ite $x5773 (_ bv576460752303357857 64) (_ bv576460752303357858 64))))
 (let ((?x5780 ((_ extract 15 8) args_11_32)))
 (let (($x5788 (= (_ bv0 8) ?x5780)))
 (let ((?x6329 (ite $x5788 (_ bv576460752303357856 64) ?x6262)))
 (let ((?x5688 ((_ extract 23 16) args_11_32)))
 (let (($x5775 (= (_ bv0 8) ?x5688)))
 (let ((?x7835 (ite $x5775 (_ bv576460752303357855 64) ?x6329)))
 (let ((?x5760 ((_ extract 31 24) args_11_32)))
 (let (($x5875 (= (_ bv0 8) ?x5760)))
 (let ((?x7768 (ite $x5875 (_ bv576460752303357854 64) ?x7835)))
 (= ?x7768 ?x35320)))))))))))))))
(assert
 (let ((?x35647 (bvadd (_ bv1 64) strlen_441_64)))
 (let ((?x35572 ((_ extract 63 3) ?x35647)))
 (= (_ bv0 61) ?x35572))))
(assert
 (let ((?x35697 ((_ extract 2 0) strlen_441_64)))
 (let ((?x37273 (bvadd (_ bv1 3) ?x35697)))
 (bvule ?x37273 (_ bv5 3)))))
(assert
 (bvule strlen_441_64 (_ bv18446744073709551614 64)))
(assert
 (let ((?x39643 (bvadd (_ bv576460752303357859 64) strlen_473_64)))
 (let ((?x6440 ((_ extract 7 0) args_12_32)))
 (let (($x6436 (= (_ bv0 8) ?x6440)))
 (let ((?x7707 (ite $x6436 (_ bv576460752303357862 64) (_ bv576460752303357863 64))))
 (let ((?x7075 ((_ extract 15 8) args_12_32)))
 (let (($x5268 (= (_ bv0 8) ?x7075)))
 (let ((?x7895 (ite $x5268 (_ bv576460752303357861 64) ?x7707)))
 (let ((?x5265 ((_ extract 23 16) args_12_32)))
 (let (($x4918 (= (_ bv0 8) ?x5265)))
 (let ((?x8083 (ite $x4918 (_ bv576460752303357860 64) ?x7895)))
 (let ((?x5236 ((_ extract 31 24) args_12_32)))
 (let (($x7048 (= (_ bv0 8) ?x5236)))
 (let ((?x8084 (ite $x7048 (_ bv576460752303357859 64) ?x8083)))
 (= ?x8084 ?x39643)))))))))))))))
(assert
 (let ((?x39891 (bvadd (_ bv1 64) strlen_473_64)))
 (let ((?x39932 ((_ extract 63 3) ?x39891)))
 (= (_ bv0 61) ?x39932))))
(assert
 (let ((?x39950 ((_ extract 2 0) strlen_473_64)))
 (let ((?x41574 (bvadd (_ bv1 3) ?x39950)))
 (bvule ?x41574 (_ bv5 3)))))
(assert
 (bvule strlen_473_64 (_ bv18446744073709551614 64)))
(assert
 (let ((?x44467 (bvadd (_ bv576460752303357864 64) strlen_510_64)))
 (let ((?x8592 ((_ extract 7 0) args_13_32)))
 (let (($x8567 (= (_ bv0 8) ?x8592)))
 (let ((?x12896 (ite $x8567 (_ bv576460752303357867 64) (_ bv576460752303357868 64))))
 (let ((?x8497 ((_ extract 15 8) args_13_32)))
 (let (($x8524 (= (_ bv0 8) ?x8497)))
 (let ((?x12930 (ite $x8524 (_ bv576460752303357866 64) ?x12896)))
 (let ((?x8547 ((_ extract 23 16) args_13_32)))
 (let (($x7742 (= (_ bv0 8) ?x8547)))
 (let ((?x12843 (ite $x7742 (_ bv576460752303357865 64) ?x12930)))
 (let ((?x8516 ((_ extract 31 24) args_13_32)))
 (let (($x8529 (= (_ bv0 8) ?x8516)))
 (let ((?x12905 (ite $x8529 (_ bv576460752303357864 64) ?x12843)))
 (= ?x12905 ?x44467)))))))))))))))
(assert
 (let ((?x44805 (bvadd (_ bv1 64) strlen_510_64)))
 (let ((?x39790 ((_ extract 63 3) ?x44805)))
 (= (_ bv0 61) ?x39790))))
(assert
 (let ((?x44818 ((_ extract 2 0) strlen_510_64)))
 (let ((?x44893 (bvadd (_ bv1 3) ?x44818)))
 (bvule ?x44893 (_ bv5 3)))))
(assert
 (bvule strlen_510_64 (_ bv18446744073709551614 64)))
(assert
 (let ((?x49539 (bvadd (_ bv576460752303357869 64) strlen_548_64)))
 (let ((?x8685 ((_ extract 7 0) args_14_32)))
 (let (($x8778 (= (_ bv0 8) ?x8685)))
 (let ((?x13011 (ite $x8778 (_ bv576460752303357872 64) (_ bv576460752303357873 64))))
 (let ((?x8754 ((_ extract 15 8) args_14_32)))
 (let (($x8818 (= (_ bv0 8) ?x8754)))
 (let ((?x13039 (ite $x8818 (_ bv576460752303357871 64) ?x13011)))
 (let ((?x8747 ((_ extract 23 16) args_14_32)))
 (let (($x8600 (= (_ bv0 8) ?x8747)))
 (let ((?x13055 (ite $x8600 (_ bv576460752303357870 64) ?x13039)))
 (let ((?x8789 ((_ extract 31 24) args_14_32)))
 (let (($x8713 (= (_ bv0 8) ?x8789)))
 (let ((?x13225 (ite $x8713 (_ bv576460752303357869 64) ?x13055)))
 (= ?x13225 ?x49539)))))))))))))))
(assert
 (let ((?x49866 (bvadd (_ bv1 64) strlen_548_64)))
 (let ((?x49700 ((_ extract 63 3) ?x49866)))
 (= (_ bv0 61) ?x49700))))
(assert
 (let ((?x49865 ((_ extract 2 0) strlen_548_64)))
 (let ((?x49723 (bvadd (_ bv1 3) ?x49865)))
 (bvule ?x49723 (_ bv5 3)))))
(assert
 (bvule strlen_548_64 (_ bv18446744073709551614 64)))
(assert
 (let ((?x54936 (bvadd (_ bv576460752303357874 64) strlen_586_64)))
 (let ((?x12719 ((_ extract 7 0) args_15_64)))
 (let (($x12599 (= (_ bv0 8) ?x12719)))
 (let ((?x13251 (ite $x12599 (_ bv576460752303357881 64) (_ bv576460752303357882 64))))
 (let ((?x12687 ((_ extract 15 8) args_15_64)))
 (let (($x12671 (= (_ bv0 8) ?x12687)))
 (let ((?x13247 (ite $x12671 (_ bv576460752303357880 64) ?x13251)))
 (let ((?x12566 ((_ extract 23 16) args_15_64)))
 (let (($x12715 (= (_ bv0 8) ?x12566)))
 (let ((?x13261 (ite $x12715 (_ bv576460752303357879 64) ?x13247)))
 (let ((?x12654 ((_ extract 31 24) args_15_64)))
 (let (($x12645 (= (_ bv0 8) ?x12654)))
 (let ((?x12676 (ite $x12645 (_ bv576460752303357878 64) ?x13261)))
 (let ((?x12395 ((_ extract 39 32) args_15_64)))
 (let (($x12668 (= (_ bv0 8) ?x12395)))
 (let ((?x12427 (ite $x12668 (_ bv576460752303357877 64) ?x12676)))
 (let ((?x12620 ((_ extract 47 40) args_15_64)))
 (let (($x12529 (= (_ bv0 8) ?x12620)))
 (let ((?x12859 (ite $x12529 (_ bv576460752303357876 64) ?x12427)))
 (let ((?x12640 ((_ extract 55 48) args_15_64)))
 (let (($x12613 (= (_ bv0 8) ?x12640)))
 (let ((?x13528 (ite $x12613 (_ bv576460752303357875 64) ?x12859)))
 (let ((?x12684 ((_ extract 63 56) args_15_64)))
 (let (($x12730 (= (_ bv0 8) ?x12684)))
 (let ((?x13670 (ite $x12730 (_ bv576460752303357874 64) ?x13528)))
 (= ?x13670 ?x54936)))))))))))))))))))))))))))
(assert
 (let ((?x53727 (bvadd (_ bv1 64) strlen_586_64)))
 (let ((?x55296 ((_ extract 63 4) ?x53727)))
 (= (_ bv0 60) ?x55296))))
(assert
 (let ((?x55267 ((_ extract 3 0) strlen_586_64)))
 (let ((?x53655 (bvadd (_ bv1 4) ?x55267)))
 (bvule ?x53655 (_ bv9 4)))))
(assert
 (bvule strlen_586_64 (_ bv18446744073709551614 64)))
(assert
 (let ((?x60839 (bvadd (_ bv576460752303357883 64) strlen_625_64)))
 (let ((?x16071 ((_ extract 7 0) args_16_64)))
 (let (($x15893 (= (_ bv0 8) ?x16071)))
 (let ((?x18009 (ite $x15893 (_ bv576460752303357890 64) (_ bv576460752303357891 64))))
 (let ((?x15920 ((_ extract 15 8) args_16_64)))
 (let (($x15905 (= (_ bv0 8) ?x15920)))
 (let ((?x18038 (ite $x15905 (_ bv576460752303357889 64) ?x18009)))
 (let ((?x16120 ((_ extract 23 16) args_16_64)))
 (let (($x16040 (= (_ bv0 8) ?x16120)))
 (let ((?x18044 (ite $x16040 (_ bv576460752303357888 64) ?x18038)))
 (let ((?x16091 ((_ extract 31 24) args_16_64)))
 (let (($x16125 (= (_ bv0 8) ?x16091)))
 (let ((?x18036 (ite $x16125 (_ bv576460752303357887 64) ?x18044)))
 (let ((?x16044 ((_ extract 39 32) args_16_64)))
 (let (($x16109 (= (_ bv0 8) ?x16044)))
 (let ((?x18029 (ite $x16109 (_ bv576460752303357886 64) ?x18036)))
 (let ((?x15231 ((_ extract 47 40) args_16_64)))
 (let (($x15832 (= (_ bv0 8) ?x15231)))
 (let ((?x18021 (ite $x15832 (_ bv576460752303357885 64) ?x18029)))
 (let ((?x15951 ((_ extract 55 48) args_16_64)))
 (let (($x15924 (= (_ bv0 8) ?x15951)))
 (let ((?x18015 (ite $x15924 (_ bv576460752303357884 64) ?x18021)))
 (let ((?x15821 ((_ extract 63 56) args_16_64)))
 (let (($x15881 (= (_ bv0 8) ?x15821)))
 (let ((?x18001 (ite $x15881 (_ bv576460752303357883 64) ?x18015)))
 (= ?x18001 ?x60839)))))))))))))))))))))))))))
(assert
 (let ((?x61340 (bvadd (_ bv1 64) strlen_625_64)))
 (let ((?x61333 ((_ extract 63 4) ?x61340)))
 (= (_ bv0 60) ?x61333))))
(assert
 (let ((?x59549 ((_ extract 3 0) strlen_625_64)))
 (let ((?x59298 (bvadd (_ bv1 4) ?x59549)))
 (bvule ?x59298 (_ bv9 4)))))
(assert
 (bvule strlen_625_64 (_ bv18446744073709551614 64)))
(assert
 (let ((?x67077 (bvadd (_ bv576460752303357892 64) strlen_664_64)))
 (let ((?x17285 ((_ extract 7 0) args_17_64)))
 (let (($x13048 (= (_ bv0 8) ?x17285)))
 (let ((?x19912 (ite $x13048 (_ bv576460752303357899 64) (_ bv576460752303357900 64))))
 (let ((?x16045 ((_ extract 15 8) args_17_64)))
 (let (($x16281 (= (_ bv0 8) ?x16045)))
 (let ((?x23127 (ite $x16281 (_ bv576460752303357898 64) ?x19912)))
 (let ((?x13888 ((_ extract 23 16) args_17_64)))
 (let (($x13927 (= (_ bv0 8) ?x13888)))
 (let ((?x22133 (ite $x13927 (_ bv576460752303357897 64) ?x23127)))
 (let ((?x16166 ((_ extract 31 24) args_17_64)))
 (let (($x14506 (= (_ bv0 8) ?x16166)))
 (let ((?x19735 (ite $x14506 (_ bv576460752303357896 64) ?x22133)))
 (let ((?x14555 ((_ extract 39 32) args_17_64)))
 (let (($x16257 (= (_ bv0 8) ?x14555)))
 (let ((?x20072 (ite $x16257 (_ bv576460752303357895 64) ?x19735)))
 (let ((?x16160 ((_ extract 47 40) args_17_64)))
 (let (($x17914 (= (_ bv0 8) ?x16160)))
 (let ((?x19859 (ite $x17914 (_ bv576460752303357894 64) ?x20072)))
 (let ((?x17949 ((_ extract 55 48) args_17_64)))
 (let (($x16357 (= (_ bv0 8) ?x17949)))
 (let ((?x20112 (ite $x16357 (_ bv576460752303357893 64) ?x19859)))
 (let ((?x16175 ((_ extract 63 56) args_17_64)))
 (let (($x16341 (= (_ bv0 8) ?x16175)))
 (let ((?x19993 (ite $x16341 (_ bv576460752303357892 64) ?x20112)))
 (= ?x19993 ?x67077)))))))))))))))))))))))))))
(assert
 (let ((?x67134 (bvadd (_ bv1 64) strlen_664_64)))
 (let ((?x67300 ((_ extract 63 4) ?x67134)))
 (= (_ bv0 60) ?x67300))))
(assert
 (let ((?x67162 ((_ extract 3 0) strlen_664_64)))
 (let ((?x67230 (bvadd (_ bv1 4) ?x67162)))
 (bvule ?x67230 (_ bv9 4)))))
(assert
 (bvule strlen_664_64 (_ bv18446744073709551614 64)))
(assert
 (let ((?x72912 (bvadd (_ bv576460752303357901 64) strlen_701_64)))
 (let ((?x21369 ((_ extract 7 0) args_18_64)))
 (let (($x23356 (= (_ bv0 8) ?x21369)))
 (let ((?x24376 (ite $x23356 (_ bv576460752303357908 64) (_ bv576460752303357909 64))))
 (let ((?x17981 ((_ extract 15 8) args_18_64)))
 (let (($x20999 (= (_ bv0 8) ?x17981)))
 (let ((?x24277 (ite $x20999 (_ bv576460752303357907 64) ?x24376)))
 (let ((?x23399 ((_ extract 23 16) args_18_64)))
 (let (($x23441 (= (_ bv0 8) ?x23399)))
 (let ((?x24342 (ite $x23441 (_ bv576460752303357906 64) ?x24277)))
 (let ((?x21200 ((_ extract 31 24) args_18_64)))
 (let (($x23434 (= (_ bv0 8) ?x21200)))
 (let ((?x24281 (ite $x23434 (_ bv576460752303357905 64) ?x24342)))
 (let ((?x18357 ((_ extract 39 32) args_18_64)))
 (let (($x23108 (= (_ bv0 8) ?x18357)))
 (let ((?x26188 (ite $x23108 (_ bv576460752303357904 64) ?x24281)))
 (let ((?x23328 ((_ extract 47 40) args_18_64)))
 (let (($x17902 (= (_ bv0 8) ?x23328)))
 (let ((?x26208 (ite $x17902 (_ bv576460752303357903 64) ?x26188)))
 (let ((?x15573 ((_ extract 55 48) args_18_64)))
 (let (($x23188 (= (_ bv0 8) ?x15573)))
 (let ((?x26014 (ite $x23188 (_ bv576460752303357902 64) ?x26208)))
 (let ((?x18296 ((_ extract 63 56) args_18_64)))
 (let (($x23498 (= (_ bv0 8) ?x18296)))
 (let ((?x25991 (ite $x23498 (_ bv576460752303357901 64) ?x26014)))
 (= ?x25991 ?x72912)))))))))))))))))))))))))))
(assert
 (let ((?x73114 (bvadd (_ bv1 64) strlen_701_64)))
 (let ((?x69999 ((_ extract 63 4) ?x73114)))
 (= (_ bv0 60) ?x69999))))
(assert
 (let ((?x73265 ((_ extract 3 0) strlen_701_64)))
 (let ((?x72681 (bvadd (_ bv1 4) ?x73265)))
 (bvule ?x72681 (_ bv9 4)))))
(assert
 (bvule strlen_701_64 (_ bv18446744073709551614 64)))
(assert
 (let ((?x78385 (bvadd (_ bv576460752303357910 64) strlen_737_64)))
 (let ((?x27336 ((_ extract 7 0) args_19_64)))
 (let (($x27385 (= (_ bv0 8) ?x27336)))
 (let ((?x20231 (ite $x27385 (_ bv576460752303357917 64) (_ bv576460752303357918 64))))
 (let ((?x25557 ((_ extract 15 8) args_19_64)))
 (let (($x25388 (= (_ bv0 8) ?x25557)))
 (let ((?x19999 (ite $x25388 (_ bv576460752303357916 64) ?x20231)))
 (let ((?x27267 ((_ extract 23 16) args_19_64)))
 (let (($x27378 (= (_ bv0 8) ?x27267)))
 (let ((?x20088 (ite $x27378 (_ bv576460752303357915 64) ?x19999)))
 (let ((?x25573 ((_ extract 31 24) args_19_64)))
 (let (($x27315 (= (_ bv0 8) ?x25573)))
 (let ((?x20060 (ite $x27315 (_ bv576460752303357914 64) ?x20088)))
 (let ((?x25213 ((_ extract 39 32) args_19_64)))
 (let (($x23385 (= (_ bv0 8) ?x25213)))
 (let ((?x20235 (ite $x23385 (_ bv576460752303357913 64) ?x20060)))
 (let ((?x27324 ((_ extract 47 40) args_19_64)))
 (let (($x27088 (= (_ bv0 8) ?x27324)))
 (let ((?x20237 (ite $x27088 (_ bv576460752303357912 64) ?x20235)))
 (let ((?x24874 ((_ extract 55 48) args_19_64)))
 (let (($x25431 (= (_ bv0 8) ?x24874)))
 (let ((?x20239 (ite $x25431 (_ bv576460752303357911 64) ?x20237)))
 (let ((?x27258 ((_ extract 63 56) args_19_64)))
 (let (($x26264 (= (_ bv0 8) ?x27258)))
 (let ((?x20241 (ite $x26264 (_ bv576460752303357910 64) ?x20239)))
 (= ?x20241 ?x78385)))))))))))))))))))))))))))
(assert
 (let ((?x78548 (bvadd (_ bv1 64) strlen_737_64)))
 (let ((?x78720 ((_ extract 63 4) ?x78548)))
 (= (_ bv0 60) ?x78720))))
(assert
 (let ((?x74858 ((_ extract 3 0) strlen_737_64)))
 (let ((?x78504 (bvadd (_ bv1 4) ?x74858)))
 (bvule ?x78504 (_ bv9 4)))))
(assert
 (bvule strlen_737_64 (_ bv18446744073709551614 64)))
(maximize strlen_81_64)
(maximize strlen_79_64)
(minimize args_5_16)
(maximize args_16_64)
(minimize args_17_64)
(minimize args_15_64)
(minimize strlen_373_64)
(maximize args_14_32)
(minimize args_3_8)
(maximize args_19_64)
(minimize args_8_16)
(minimize strlen_586_64)
(minimize strlen_625_64)
(maximize args_9_16)
(minimize args_16_64)
(maximize args_5_16)
(minimize strlen_112_64)
(minimize args_14_32)
(minimize strlen_117_64)
(maximize strlen_77_64)
(maximize strlen_405_64)
(minimize strlen_79_64)
(maximize strlen_664_64)
(maximize strlen_701_64)
(maximize strlen_441_64)
(maximize args_18_64)
(minimize strlen_701_64)
(minimize strlen_548_64)
(minimize args_7_16)
(maximize args_6_16)
(minimize strlen_83_64)
(maximize args_4_8)
(minimize strlen_182_64)
(minimize strlen_77_64)
(maximize strlen_548_64)
(maximize strlen_223_64)
(maximize strlen_510_64)
(minimize strlen_164_64)
(maximize strlen_339_64)
(maximize strlen_737_64)
(minimize args_18_64)
(minimize strlen_737_64)
(minimize strlen_510_64)
(maximize args_17_64)
(minimize args_19_64)
(maximize strlen_109_64)
(maximize args_0_8)
(maximize strlen_203_64)
(maximize args_2_8)
(maximize strlen_308_64)
(minimize strlen_223_64)
(maximize args_7_16)
(maximize strlen_164_64)
(minimize args_10_32)
(maximize args_1_8)
(maximize strlen_83_64)
(maximize args_8_16)
(maximize strlen_473_64)
(minimize strlen_109_64)
(minimize args_11_32)
(minimize strlen_275_64)
(minimize strlen_249_64)
(minimize args_4_8)
(minimize args_12_32)
(minimize strlen_664_64)
(minimize strlen_203_64)
(maximize strlen_625_64)
(maximize strlen_275_64)
(maximize strlen_586_64)
(maximize args_3_8)
(maximize args_11_32)
(maximize strlen_373_64)
(minimize strlen_308_64)
(minimize strlen_339_64)
(maximize args_12_32)
(minimize args_1_8)
(maximize args_13_32)
(minimize strlen_405_64)
(check-sat)
(get-objectives)
